1
1000
85
375 1
391 1
265 1
422 1
269 1
465 1
429 1
272 2
402 1
387 2
475 1
405 1
414 1
397 3
409 2
282 1
495 1
285 1
329 1
288 1
289 1
290 2
291 1
292 1
293 2
294 1
487 1
425 1
299 1
370 1
307 1
175 1
179 2
436 1
309 1
182 1
183 1
186 1
479 1
446 1
191 1
194 2
452 1
453 1
454 1
455 1
456 1
201 2
458 1
331 1
354 1
206 1
335 1
450 1
209 1
338 1
467 1
212 1
469 1
470 1
457 1
217 2
463 1
221 1
478 2
351 1
226 1
355 1
484 1
229 3
337 1
233 1
234 1
485 1
364 1
466 1
461 1
240 1
369 1
242 2
493 1
245 1
247 1
477 1
319 1
